(set-logic ALL)
(set-option :produce-models true)
(declare-sort BoundSet 0)
(declare-sort UnboundSet 0)
(set-option :finite-model-find true)
(declare-fun IsSpeaking (BoundSet) Bool)
(declare-fun IsGivenRespect (BoundSet) Bool)
(assert (not (=> (exists ((b BoundSet)) (IsSpeaking b)) (exists ((d BoundSet)) (IsGivenRespect d)))))
(check-sat)
(get-model)